# Solution for model r5_t9_m9_3
# Finished Task: 9 / 9
# Makespan: 562.0, Total Distance: 188.0, Total Time: 0.6542
# R O S F
0 0 13 0.0 0.0
1 1 12 0.0 0.0
2 2 5 40.0 40.0
3 3 8 23.0 23.0
4 4 10 6.0 6.0
5 2 6 371.0 410.0
6 2 9 442.0 462.0
7 3 -1 489.0 528.0
8 3 7 105.0 126.0
9 2 -1 501.0 522.0
10 4 11 267.0 305.0
11 4 -1 528.0 562.0
12 1 -1 142.0 168.0
13 0 -1 453.0 489.0
